# Written by fncsTSO.py

set StageSet := FirstStage SecondStage ;

set CommitmentTimeInStage[FirstStage] := 1 2 3 4 5 6 7 8 9 10 11 12 13 14 15 16 17 18 19 20 21 22 23 24 ;
set CommitmentTimeInStage[SecondStage] := ;

set GenerationTimeInStage[FirstStage] := ;
set GenerationTimeInStage[SecondStage] := 1 2 3 4 5 6 7 8 9 10 11 12 13 14 15 16 17 18 19 20 21 22 23 24 ;

set Buses := Bus1 Bus2 Bus3 Bus4 Bus5 Bus6 Bus7 Bus8 ;

set TransmissionLines :=
Bus5 Bus6
Bus4 Bus5
Bus4 Bus6
Bus1 Bus2
Bus2 Bus7
Bus1 Bus5
Bus4 Bus8
Bus6 Bus7
Bus2 Bus5
Bus1 Bus4
Bus3 Bus4
Bus5 Bus7
Bus1 Bus3
;

param NumTransmissionLines := 13 ;

param: BusFrom BusTo ThermalLimit Reactance :=
1 Bus5 Bus6 21.68 3.02E-05
2 Bus4 Bus5 65.04 1.77E-05
3 Bus4 Bus6 21.68 4.26E-05
4 Bus1 Bus2 21.68 4.38E-05
5 Bus2 Bus7 21.68 4.42E-05
6 Bus1 Bus5 21.68 4.16E-05
7 Bus4 Bus8 21.68 4.55E-05
8 Bus6 Bus7 21.68 4.23E-05
9 Bus2 Bus5 65.04 1.05E-05
10 Bus1 Bus4 21.68 5.61E-05
11 Bus3 Bus4 21.68 3.13E-05
12 Bus5 Bus7 21.68 3.54E-05
13 Bus1 Bus3 32.52 3.00E-05
;

set ThermalGenerators := GenCo1 GenCo2 GenCo3 GenCo4 GenCo5 GenCo6 GenCo7 GenCo8 GenCo9 GenCo10 GenCo11 GenCo12 GenCo13 ;

set ThermalGeneratorsAtBus[Bus1] := GenCo1 GenCo2 GenCo3 ;
set ThermalGeneratorsAtBus[Bus2] := GenCo4 GenCo5 GenCo6 ;
set ThermalGeneratorsAtBus[Bus3] := GenCo7 GenCo8 ;
set ThermalGeneratorsAtBus[Bus4] := GenCo9 ;
set ThermalGeneratorsAtBus[Bus5] := GenCo10 GenCo11 ;
set ThermalGeneratorsAtBus[Bus6] := ;
set ThermalGeneratorsAtBus[Bus7] := GenCo12 GenCo13 ;
set ThermalGeneratorsAtBus[Bus8] := ;

param BalPenPos := 1000000 ;

param BalPenNeg := 1000000 ;

param TimePeriodLength := 1 ;

param NumTimePeriods := 24 ;

param: PowerGeneratedT0 UnitOnT0State MinimumPowerOutput MaximumPowerOutput MinimumUpTime MinimumDownTime NominalRampUpLimit NominalRampDownLimit StartupRampLimit ShutdownRampLimit ColdStartHours ColdStartCost HotStartCost ShutdownCostCoefficient :=
GenCo1 99.894000 1 19.978800 199.788000 0 0 0.000000 0.000000 0.000000 0.000000 0 0.000000 0.000000 0.000000
GenCo2 58.324000 1 11.664800 116.648000 0 0 0.000000 0.000000 0.000000 0.000000 0 0.000000 0.000000 0.000000
GenCo3 12.150000 1 2.430000 24.300000 0 0 0.000000 0.000000 0.000000 0.000000 0 0.000000 0.000000 0.000000
GenCo4 103.808500 1 20.761700 207.617000 0 0 0.000000 0.000000 0.000000 0.000000 0 0.000000 0.000000 0.000000
GenCo5 15.951500 1 3.190300 31.903000 0 0 0.000000 0.000000 0.000000 0.000000 0 0.000000 0.000000 0.000000
GenCo6 13.543000 1 2.708600 27.086000 0 0 0.000000 0.000000 0.000000 0.000000 0 0.000000 0.000000 0.000000
GenCo7 0.400000 1 0.080000 0.800000 0 0 0.000000 0.000000 0.000000 0.000000 0 0.000000 0.000000 0.000000
GenCo8 3.600000 1 0.720000 7.200000 0 0 0.000000 0.000000 0.000000 0.000000 0 0.000000 0.000000 0.000000
GenCo9 17.191000 1 3.438200 34.382000 0 0 0.000000 0.000000 0.000000 0.000000 0 0.000000 0.000000 0.000000
GenCo10 52.948500 1 10.589700 105.897000 0 0 0.000000 0.000000 0.000000 0.000000 0 0.000000 0.000000 0.000000
GenCo11 28.640500 1 5.728100 57.281000 0 0 0.000000 0.000000 0.000000 0.000000 0 0.000000 0.000000 0.000000
GenCo12 36.925000 1 7.385000 73.850000 0 0 0.000000 0.000000 0.000000 0.000000 0 0.000000 0.000000 0.000000
GenCo13 3.112000 1 0.622400 6.224000 0 0 0.000000 0.000000 0.000000 0.000000 0 0.000000 0.000000 0.000000
 ;

param: ID atBus EndPointSoc MaximumEnergy NominalRampDownInput NominalRampUpInput NominalRampDownOutput NominalRampUpOutput MaximumPowerInput MinimumPowerInput MaximumPowerOutput MinimumPowerOutput MinimumSoc EfficiencyEnergy :=
 ;

param StorageFlag := 0.0 ;

param PriceSenLoadFlag := 1 ;

param ReserveDownSystemPercent := 0.2 ;

param ReserveUpSystemPercent := 0.3 ;

param HasZonalReserves := False ;

param: NetDemand :=
Bus1 1 31.1399
Bus1 2 28.7875
Bus1 3 28.1075
Bus1 4 29.6425
Bus1 5 30.1314
Bus1 6 35.3401
Bus1 7 42.7176
Bus1 8 47.0623
Bus1 9 49.4394
Bus1 10 52.6016
Bus1 11 55.9253
Bus1 12 58.8025
Bus1 13 61.0386
Bus1 14 63.4342
Bus1 15 66.7336
Bus1 16 69.0401
Bus1 17 71.0990
Bus1 18 73.1886
Bus1 19 71.9048
Bus1 20 68.7530
Bus1 21 66.6959
Bus1 22 62.2827
Bus1 23 54.1907
Bus1 24 42.1194

Bus2 1 51.5172
Bus2 2 45.5979
Bus2 3 44.2340
Bus2 4 44.0170
Bus2 5 44.8122
Bus2 6 46.4938
Bus2 7 48.6369
Bus2 8 51.2794
Bus2 9 54.2603
Bus2 10 56.7745
Bus2 11 58.9152
Bus2 12 60.7692
Bus2 13 62.5711
Bus2 14 64.5893
Bus2 15 66.9912
Bus2 16 69.5617
Bus2 17 71.9933
Bus2 18 73.6767
Bus2 19 73.8681
Bus2 20 72.4144
Bus2 21 70.4126
Bus2 22 68.7466
Bus2 23 66.2035
Bus2 24 61.7150

Bus3 1 -21.3404
Bus3 2 -21.4170
Bus3 3 -21.4393
Bus3 4 -21.4382
Bus3 5 -21.4146
Bus3 6 -21.3732
Bus3 7 -21.3236
Bus3 8 -21.2605
Bus3 9 -21.1963
Bus3 10 -21.1427
Bus3 11 -15.4370
Bus3 12 -13.3851
Bus3 13 -14.4471
Bus3 14 -14.1022
Bus3 15 -10.9015
Bus3 16 -8.1039
Bus3 17 -7.2836
Bus3 18 -7.0202
Bus3 19 -10.3344
Bus3 20 -14.9167
Bus3 21 -18.0525
Bus3 22 -15.8689
Bus3 23 -12.4115
Bus3 24 -13.2067

Bus4 1 -73.3194
Bus4 2 -75.8633
Bus4 3 -76.4019
Bus4 4 -76.5556
Bus4 5 -76.4624
Bus4 6 -75.6253
Bus4 7 -75.6378
Bus4 8 -65.7783
Bus4 9 -48.7245
Bus4 10 -71.7873
Bus4 11 -33.1619
Bus4 12 -48.7637
Bus4 13 -38.2338
Bus4 14 -41.6993
Bus4 15 -25.9802
Bus4 16 -40.5464
Bus4 17 -67.0706
Bus4 18 -53.8809
Bus4 19 -66.0172
Bus4 20 -62.9592
Bus4 21 -69.9165
Bus4 22 -70.3351
Bus4 23 -35.4826
Bus4 24 -18.5618

Bus5 1 26.1479
Bus5 2 23.2861
Bus5 3 22.6039
Bus5 4 22.5029
Bus5 5 22.9196
Bus5 6 23.7863
Bus5 7 24.8847
Bus5 8 26.2427
Bus5 9 27.7638
Bus5 10 29.0445
Bus5 11 30.1353
Bus5 12 31.0811
Bus5 13 32.0031
Bus5 14 33.0382
Bus5 15 34.2693
Bus5 16 35.5834
Bus5 17 36.8226
Bus5 18 37.6714
Bus5 19 37.7517
Bus5 20 36.9951
Bus5 21 35.9755
Bus5 22 35.1219
Bus5 23 33.8064
Bus5 24 31.4900

Bus6 1 0.5490
Bus6 2 0.3222
Bus6 3 0.2764
Bus6 4 0.2662
Bus6 5 0.2850
Bus6 6 0.4562
Bus6 7 0.3908
Bus6 8 0.7850
Bus6 9 0.9425
Bus6 10 0.6892
Bus6 11 1.0010
Bus6 12 1.2364
Bus6 13 1.3739
Bus6 14 1.6159
Bus6 15 1.7641
Bus6 16 1.9163
Bus6 17 2.0041
Bus6 18 2.1044
Bus6 19 2.1252
Bus6 20 2.0809
Bus6 21 2.0179
Bus6 22 1.9391
Bus6 23 1.7537
Bus6 24 1.4358

Bus7 1 -17.9528
Bus7 2 -18.7179
Bus7 3 -18.9285
Bus7 4 -18.7563
Bus7 5 -18.2170
Bus7 6 -17.4428
Bus7 7 -16.5269
Bus7 8 -15.3888
Bus7 9 -11.7749
Bus7 10 -8.1378
Bus7 11 -4.3829
Bus7 12 -2.7721
Bus7 13 -1.2751
Bus7 14 0.7608
Bus7 15 0.4873
Bus7 16 -0.0243
Bus7 17 -1.7893
Bus7 18 -5.9954
Bus7 19 -7.8944
Bus7 20 -8.6652
Bus7 21 -9.3061
Bus7 22 -9.5244
Bus7 23 -8.4015
Bus7 24 -14.1958

Bus8 1 0.3770
Bus8 2 0.3464
Bus8 3 0.3376
Bus8 4 0.3372
Bus8 5 0.3445
Bus8 6 0.3582
Bus8 7 0.3749
Bus8 8 0.3960
Bus8 9 0.4184
Bus8 10 0.4371
Bus8 11 0.4531
Bus8 12 0.4671
Bus8 13 0.4810
Bus8 14 0.4969
Bus8 15 0.5156
Bus8 16 0.5353
Bus8 17 0.5534
Bus8 18 0.5648
Bus8 19 0.5641
Bus8 20 0.5514
Bus8 21 0.5367
Bus8 22 0.5235
Bus8 23 0.5021
Bus8 24 0.4650

;

set PricesSensitiveLoadNames := LSE1, LSE2, LSE3, LSE4, LSE5, LSE6, LSE7, LSE8 ;

param: Name ID atBus hourIndex BenefitCoefficientC0 BenefitCoefficientC1 BenefitCoefficientC2 SLMin SLMax :=
LSE1 1 Bus1 1 0.0  60.00 -2.00 0.0  23.94
LSE1 1 Bus1 2 0.0  60.00 -2.00 0.0  22.77
LSE1 1 Bus1 3 0.0  60.00 -2.00 0.0  22.43
LSE1 1 Bus1 4 0.0  60.00 -2.00 0.0  22.60
LSE1 1 Bus1 5 0.0  60.00 -2.00 0.0  23.28
LSE1 1 Bus1 6 0.0  60.00 -2.00 0.0  24.30
LSE1 1 Bus1 7 0.0  60.00 -2.00 0.0  25.50
LSE1 1 Bus1 8 0.0  60.00 -2.00 0.0  27.02
LSE1 1 Bus1 9 0.0  60.00 -2.00 0.0  28.41
LSE1 1 Bus1 10 0.0  60.00 -2.00 0.0  29.58
LSE1 1 Bus1 11 0.0  60.00 -2.00 0.0  30.58
LSE1 1 Bus1 12 0.0  60.00 -2.00 0.0  31.49
LSE1 1 Bus1 13 0.0  60.00 -2.00 0.0  32.46
LSE1 1 Bus1 14 0.0  60.00 -2.00 0.0  33.60
LSE1 1 Bus1 15 0.0  60.00 -2.00 0.0  34.89
LSE1 1 Bus1 16 0.0  60.00 -2.00 0.0  36.18
LSE1 1 Bus1 17 0.0  60.00 -2.00 0.0  37.26
LSE1 1 Bus1 18 0.0  60.00 -2.00 0.0  37.73
LSE1 1 Bus1 19 0.0  60.00 -2.00 0.0  37.33
LSE1 1 Bus1 20 0.0  60.00 -2.00 0.0  36.32
LSE1 1 Bus1 21 0.0  60.00 -2.00 0.0  35.44
LSE1 1 Bus1 22 0.0  60.00 -2.00 0.0  34.42
LSE1 1 Bus1 23 0.0  60.00 -2.00 0.0  32.60
LSE1 1 Bus1 24 0.0  60.00 -2.00 0.0  29.36

LSE2 2 Bus2 1 0.0  60.00 -2.00 0.0  25.76
LSE2 2 Bus2 2 0.0  60.00 -2.00 0.0  22.80
LSE2 2 Bus2 3 0.0  60.00 -2.00 0.0  22.12
LSE2 2 Bus2 4 0.0  60.00 -2.00 0.0  22.01
LSE2 2 Bus2 5 0.0  60.00 -2.00 0.0  22.41
LSE2 2 Bus2 6 0.0  60.00 -2.00 0.0  23.25
LSE2 2 Bus2 7 0.0  60.00 -2.00 0.0  24.32
LSE2 2 Bus2 8 0.0  60.00 -2.00 0.0  25.64
LSE2 2 Bus2 9 0.0  60.00 -2.00 0.0  27.13
LSE2 2 Bus2 10 0.0  60.00 -2.00 0.0  28.39
LSE2 2 Bus2 11 0.0  60.00 -2.00 0.0  29.46
LSE2 2 Bus2 12 0.0  60.00 -2.00 0.0  30.38
LSE2 2 Bus2 13 0.0  60.00 -2.00 0.0  31.29
LSE2 2 Bus2 14 0.0  60.00 -2.00 0.0  32.29
LSE2 2 Bus2 15 0.0  60.00 -2.00 0.0  33.50
LSE2 2 Bus2 16 0.0  60.00 -2.00 0.0  34.78
LSE2 2 Bus2 17 0.0  60.00 -2.00 0.0  36.00
LSE2 2 Bus2 18 0.0  60.00 -2.00 0.0  36.84
LSE2 2 Bus2 19 0.0  60.00 -2.00 0.0  36.93
LSE2 2 Bus2 20 0.0  60.00 -2.00 0.0  36.21
LSE2 2 Bus2 21 0.0  60.00 -2.00 0.0  35.21
LSE2 2 Bus2 22 0.0  60.00 -2.00 0.0  34.37
LSE2 2 Bus2 23 0.0  60.00 -2.00 0.0  33.10
LSE2 2 Bus2 24 0.0  60.00 -2.00 0.0  30.86

LSE3 3 Bus3 1 0.0  60.00 -2.00 0.0  0.54
LSE3 3 Bus3 2 0.0  60.00 -2.00 0.0  0.50
LSE3 3 Bus3 3 0.0  60.00 -2.00 0.0  0.49
LSE3 3 Bus3 4 0.0  60.00 -2.00 0.0  0.49
LSE3 3 Bus3 5 0.0  60.00 -2.00 0.0  0.50
LSE3 3 Bus3 6 0.0  60.00 -2.00 0.0  0.52
LSE3 3 Bus3 7 0.0  60.00 -2.00 0.0  0.55
LSE3 3 Bus3 8 0.0  60.00 -2.00 0.0  0.58
LSE3 3 Bus3 9 0.0  60.00 -2.00 0.0  0.61
LSE3 3 Bus3 10 0.0  60.00 -2.00 0.0  0.64
LSE3 3 Bus3 11 0.0  60.00 -2.00 0.0  0.66
LSE3 3 Bus3 12 0.0  60.00 -2.00 0.0  0.68
LSE3 3 Bus3 13 0.0  60.00 -2.00 0.0  0.70
LSE3 3 Bus3 14 0.0  60.00 -2.00 0.0  0.73
LSE3 3 Bus3 15 0.0  60.00 -2.00 0.0  0.75
LSE3 3 Bus3 16 0.0  60.00 -2.00 0.0  0.78
LSE3 3 Bus3 17 0.0  60.00 -2.00 0.0  0.81
LSE3 3 Bus3 18 0.0  60.00 -2.00 0.0  0.82
LSE3 3 Bus3 19 0.0  60.00 -2.00 0.0  0.82
LSE3 3 Bus3 20 0.0  60.00 -2.00 0.0  0.80
LSE3 3 Bus3 21 0.0  60.00 -2.00 0.0  0.78
LSE3 3 Bus3 22 0.0  60.00 -2.00 0.0  0.76
LSE3 3 Bus3 23 0.0  60.00 -2.00 0.0  0.73
LSE3 3 Bus3 24 0.0  60.00 -2.00 0.0  0.67

LSE4 4 Bus4 1 0.0  60.00 -2.00 0.0  6.99
LSE4 4 Bus4 2 0.0  60.00 -2.00 0.0  5.72
LSE4 4 Bus4 3 0.0  60.00 -2.00 0.0  5.45
LSE4 4 Bus4 4 0.0  60.00 -2.00 0.0  5.37
LSE4 4 Bus4 5 0.0  60.00 -2.00 0.0  5.42
LSE4 4 Bus4 6 0.0  60.00 -2.00 0.0  5.59
LSE4 4 Bus4 7 0.0  60.00 -2.00 0.0  5.83
LSE4 4 Bus4 8 0.0  60.00 -2.00 0.0  6.12
LSE4 4 Bus4 9 0.0  60.00 -2.00 0.0  6.49
LSE4 4 Bus4 10 0.0  60.00 -2.00 0.0  6.82
LSE4 4 Bus4 11 0.0  60.00 -2.00 0.0  7.10
LSE4 4 Bus4 12 0.0  60.00 -2.00 0.0  7.34
LSE4 4 Bus4 13 0.0  60.00 -2.00 0.0  7.55
LSE4 4 Bus4 14 0.0  60.00 -2.00 0.0  7.79
LSE4 4 Bus4 15 0.0  60.00 -2.00 0.0  8.06
LSE4 4 Bus4 16 0.0  60.00 -2.00 0.0  8.37
LSE4 4 Bus4 17 0.0  60.00 -2.00 0.0  8.68
LSE4 4 Bus4 18 0.0  60.00 -2.00 0.0  8.94
LSE4 4 Bus4 19 0.0  60.00 -2.00 0.0  9.04
LSE4 4 Bus4 20 0.0  60.00 -2.00 0.0  8.94
LSE4 4 Bus4 21 0.0  60.00 -2.00 0.0  8.69
LSE4 4 Bus4 22 0.0  60.00 -2.00 0.0  8.48
LSE4 4 Bus4 23 0.0  60.00 -2.00 0.0  8.24
LSE4 4 Bus4 24 0.0  60.00 -2.00 0.0  7.79

LSE5 5 Bus5 1 0.0  60.00 -2.00 0.0  13.07
LSE5 5 Bus5 2 0.0  60.00 -2.00 0.0  11.64
LSE5 5 Bus5 3 0.0  60.00 -2.00 0.0  11.30
LSE5 5 Bus5 4 0.0  60.00 -2.00 0.0  11.25
LSE5 5 Bus5 5 0.0  60.00 -2.00 0.0  11.46
LSE5 5 Bus5 6 0.0  60.00 -2.00 0.0  11.89
LSE5 5 Bus5 7 0.0  60.00 -2.00 0.0  12.44
LSE5 5 Bus5 8 0.0  60.00 -2.00 0.0  13.12
LSE5 5 Bus5 9 0.0  60.00 -2.00 0.0  13.88
LSE5 5 Bus5 10 0.0  60.00 -2.00 0.0  14.52
LSE5 5 Bus5 11 0.0  60.00 -2.00 0.0  15.07
LSE5 5 Bus5 12 0.0  60.00 -2.00 0.0  15.54
LSE5 5 Bus5 13 0.0  60.00 -2.00 0.0  16.00
LSE5 5 Bus5 14 0.0  60.00 -2.00 0.0  16.52
LSE5 5 Bus5 15 0.0  60.00 -2.00 0.0  17.13
LSE5 5 Bus5 16 0.0  60.00 -2.00 0.0  17.79
LSE5 5 Bus5 17 0.0  60.00 -2.00 0.0  18.41
LSE5 5 Bus5 18 0.0  60.00 -2.00 0.0  18.84
LSE5 5 Bus5 19 0.0  60.00 -2.00 0.0  18.88
LSE5 5 Bus5 20 0.0  60.00 -2.00 0.0  18.50
LSE5 5 Bus5 21 0.0  60.00 -2.00 0.0  17.99
LSE5 5 Bus5 22 0.0  60.00 -2.00 0.0  17.56
LSE5 5 Bus5 23 0.0  60.00 -2.00 0.0  16.90
LSE5 5 Bus5 24 0.0  60.00 -2.00 0.0  15.74

LSE6 6 Bus6 1 0.0  60.00 -2.00 0.0  0.77
LSE6 6 Bus6 2 0.0  60.00 -2.00 0.0  0.66
LSE6 6 Bus6 3 0.0  60.00 -2.00 0.0  0.64
LSE6 6 Bus6 4 0.0  60.00 -2.00 0.0  0.63
LSE6 6 Bus6 5 0.0  60.00 -2.00 0.0  0.64
LSE6 6 Bus6 6 0.0  60.00 -2.00 0.0  0.66
LSE6 6 Bus6 7 0.0  60.00 -2.00 0.0  0.69
LSE6 6 Bus6 8 0.0  60.00 -2.00 0.0  0.73
LSE6 6 Bus6 9 0.0  60.00 -2.00 0.0  0.77
LSE6 6 Bus6 10 0.0  60.00 -2.00 0.0  0.81
LSE6 6 Bus6 11 0.0  60.00 -2.00 0.0  0.84
LSE6 6 Bus6 12 0.0  60.00 -2.00 0.0  0.87
LSE6 6 Bus6 13 0.0  60.00 -2.00 0.0  0.90
LSE6 6 Bus6 14 0.0  60.00 -2.00 0.0  0.92
LSE6 6 Bus6 15 0.0  60.00 -2.00 0.0  0.96
LSE6 6 Bus6 16 0.0  60.00 -2.00 0.0  0.99
LSE6 6 Bus6 17 0.0  60.00 -2.00 0.0  1.03
LSE6 6 Bus6 18 0.0  60.00 -2.00 0.0  1.06
LSE6 6 Bus6 19 0.0  60.00 -2.00 0.0  1.06
LSE6 6 Bus6 20 0.0  60.00 -2.00 0.0  1.04
LSE6 6 Bus6 21 0.0  60.00 -2.00 0.0  1.02
LSE6 6 Bus6 22 0.0  60.00 -2.00 0.0  0.99
LSE6 6 Bus6 23 0.0  60.00 -2.00 0.0  0.96
LSE6 6 Bus6 24 0.0  60.00 -2.00 0.0  0.90

LSE7 7 Bus7 1 0.0  60.00 -2.00 0.0  8.83
LSE7 7 Bus7 2 0.0  60.00 -2.00 0.0  8.45
LSE7 7 Bus7 3 0.0  60.00 -2.00 0.0  8.35
LSE7 7 Bus7 4 0.0  60.00 -2.00 0.0  8.43
LSE7 7 Bus7 5 0.0  60.00 -2.00 0.0  8.70
LSE7 7 Bus7 6 0.0  60.00 -2.00 0.0  9.09
LSE7 7 Bus7 7 0.0  60.00 -2.00 0.0  9.55
LSE7 7 Bus7 8 0.0  60.00 -2.00 0.0  10.12
LSE7 7 Bus7 9 0.0  60.00 -2.00 0.0  10.62
LSE7 7 Bus7 10 0.0  60.00 -2.00 0.0  11.05
LSE7 7 Bus7 11 0.0  60.00 -2.00 0.0  11.42
LSE7 7 Bus7 12 0.0  60.00 -2.00 0.0  11.76
LSE7 7 Bus7 13 0.0  60.00 -2.00 0.0  12.12
LSE7 7 Bus7 14 0.0  60.00 -2.00 0.0  12.55
LSE7 7 Bus7 15 0.0  60.00 -2.00 0.0  13.04
LSE7 7 Bus7 16 0.0  60.00 -2.00 0.0  13.52
LSE7 7 Bus7 17 0.0  60.00 -2.00 0.0  13.90
LSE7 7 Bus7 18 0.0  60.00 -2.00 0.0  14.04
LSE7 7 Bus7 19 0.0  60.00 -2.00 0.0  13.86
LSE7 7 Bus7 20 0.0  60.00 -2.00 0.0  13.48
LSE7 7 Bus7 21 0.0  60.00 -2.00 0.0  13.16
LSE7 7 Bus7 22 0.0  60.00 -2.00 0.0  12.76
LSE7 7 Bus7 23 0.0  60.00 -2.00 0.0  12.04
LSE7 7 Bus7 24 0.0  60.00 -2.00 0.0  10.71

LSE8 8 Bus8 1 0.0  60.00 -2.00 0.0  0.19
LSE8 8 Bus8 2 0.0  60.00 -2.00 0.0  0.17
LSE8 8 Bus8 3 0.0  60.00 -2.00 0.0  0.17
LSE8 8 Bus8 4 0.0  60.00 -2.00 0.0  0.17
LSE8 8 Bus8 5 0.0  60.00 -2.00 0.0  0.17
LSE8 8 Bus8 6 0.0  60.00 -2.00 0.0  0.18
LSE8 8 Bus8 7 0.0  60.00 -2.00 0.0  0.19
LSE8 8 Bus8 8 0.0  60.00 -2.00 0.0  0.20
LSE8 8 Bus8 9 0.0  60.00 -2.00 0.0  0.21
LSE8 8 Bus8 10 0.0  60.00 -2.00 0.0  0.22
LSE8 8 Bus8 11 0.0  60.00 -2.00 0.0  0.23
LSE8 8 Bus8 12 0.0  60.00 -2.00 0.0  0.23
LSE8 8 Bus8 13 0.0  60.00 -2.00 0.0  0.24
LSE8 8 Bus8 14 0.0  60.00 -2.00 0.0  0.25
LSE8 8 Bus8 15 0.0  60.00 -2.00 0.0  0.26
LSE8 8 Bus8 16 0.0  60.00 -2.00 0.0  0.27
LSE8 8 Bus8 17 0.0  60.00 -2.00 0.0  0.28
LSE8 8 Bus8 18 0.0  60.00 -2.00 0.0  0.28
LSE8 8 Bus8 19 0.0  60.00 -2.00 0.0  0.28
LSE8 8 Bus8 20 0.0  60.00 -2.00 0.0  0.28
LSE8 8 Bus8 21 0.0  60.00 -2.00 0.0  0.27
LSE8 8 Bus8 22 0.0  60.00 -2.00 0.0  0.26
LSE8 8 Bus8 23 0.0  60.00 -2.00 0.0  0.25
LSE8 8 Bus8 24 0.0  60.00 -2.00 0.0  0.23

;

param: ProductionCostA0 ProductionCostA1 ProductionCostA2 NS :=
GenCo1 0.00000 40.00000 0.00500 4
GenCo2 0.00000 19.00000 0.00500 4
GenCo3 0.00000 8.00000 0.00019 4
GenCo4 0.00000 40.00000 0.00500 4
GenCo5 0.00000 19.00000 0.00500 4
GenCo6 0.00000 8.00000 0.00019 4
GenCo7 0.00000 40.00000 0.00500 4
GenCo8 0.00000 19.00000 0.00500 4
GenCo9 0.00000 40.00000 0.00500 4
GenCo10 0.00000 40.00000 0.00500 4
GenCo11 0.00000 19.00000 0.00500 4
GenCo12 0.00000 40.00000 0.00500 4
GenCo13 0.00000 19.00000 0.00500 4
;
